g3 0 1 0	# problem eigenbco
 110 55 1 0 55	# vars, constraints, objectives, ranges, eqns
 55 1	# nonlinear constraints, objectives
 0 0	# network constraints: nonlinear, linear
 100 110 100	# nonlinear vars in constraints, objectives, both
 0 0 0 1	# linear network variables; functions; arith, flags
 0 0 0 0 0	# discrete variables: binary, integer, nonlinear (b,c,o)
 1000 110	# nonzeros in Jacobian, gradients
 0 0	# max name lengths: constraints, variables
 0 0 0 0 0	# common exprs: b,c,o,c1,o1
b
3
3
3
3
3
3
3
3
3
3
3
3
3
3
3
3
3
3
3
3
3
3
3
3
3
3
3
3
3
3
3
3
3
3
3
3
3
3
3
3
3
3
3
3
3
3
3
3
3
3
3
3
3
3
3
3
3
3
3
3
3
3
3
3
3
3
3
3
3
3
3
3
3
3
3
3
3
3
3
3
3
3
3
3
3
3
3
3
3
3
3
3
3
3
3
3
3
3
3
3
3
3
3
3
3
3
3
3
3
3
x110
0 1
1 0
2 0
3 0
4 0
5 0
6 0
7 0
8 0
9 0
10 0
11 1
12 0
13 0
14 0
15 0
16 0
17 0
18 0
19 0
20 0
21 0
22 1
23 0
24 0
25 0
26 0
27 0
28 0
29 0
30 0
31 0
32 0
33 1
34 0
35 0
36 0
37 0
38 0
39 0
40 0
41 0
42 0
43 0
44 1
45 0
46 0
47 0
48 0
49 0
50 0
51 0
52 0
53 0
54 0
55 1
56 0
57 0
58 0
59 0
60 0
61 0
62 0
63 0
64 0
65 0
66 1
67 0
68 0
69 0
70 0
71 0
72 0
73 0
74 0
75 0
76 0
77 1
78 0
79 0
80 0
81 0
82 0
83 0
84 0
85 0
86 0
87 0
88 1
89 0
90 0
91 0
92 0
93 0
94 0
95 0
96 0
97 0
98 0
99 1
100 1
101 1
102 1
103 1
104 1
105 1
106 1
107 1
108 1
109 1
r
4 0
4 0
4 0
4 0
4 0
4 0
4 0
4 0
4 0
4 0
4 0
4 0
4 0
4 0
4 0
4 0
4 0
4 0
4 0
4 0
4 0
4 0
4 0
4 0
4 0
4 0
4 0
4 0
4 0
4 0
4 0
4 0
4 0
4 0
4 0
4 0
4 0
4 0
4 0
4 0
4 0
4 0
4 0
4 0
4 0
4 1
4 1
4 1
4 1
4 1
4 1
4 1
4 1
4 1
4 1
C0
o54
10
o2
v0
v1
o2
v10
v11
o2
v20
v21
o2
v30
v31
o2
v40
v41
o2
v50
v51
o2
v60
v61
o2
v70
v71
o2
v80
v81
o2
v90
v91
C1
o54
10
o2
v0
v2
o2
v10
v12
o2
v20
v22
o2
v30
v32
o2
v40
v42
o2
v50
v52
o2
v60
v62
o2
v70
v72
o2
v80
v82
o2
v90
v92
C2
o54
10
o2
v1
v2
o2
v11
v12
o2
v21
v22
o2
v31
v32
o2
v41
v42
o2
v51
v52
o2
v61
v62
o2
v71
v72
o2
v81
v82
o2
v91
v92
C3
o54
10
o2
v0
v3
o2
v10
v13
o2
v20
v23
o2
v30
v33
o2
v40
v43
o2
v50
v53
o2
v60
v63
o2
v70
v73
o2
v80
v83
o2
v90
v93
C4
o54
10
o2
v1
v3
o2
v11
v13
o2
v21
v23
o2
v31
v33
o2
v41
v43
o2
v51
v53
o2
v61
v63
o2
v71
v73
o2
v81
v83
o2
v91
v93
C5
o54
10
o2
v2
v3
o2
v12
v13
o2
v22
v23
o2
v32
v33
o2
v42
v43
o2
v52
v53
o2
v62
v63
o2
v72
v73
o2
v82
v83
o2
v92
v93
C6
o54
10
o2
v0
v4
o2
v10
v14
o2
v20
v24
o2
v30
v34
o2
v40
v44
o2
v50
v54
o2
v60
v64
o2
v70
v74
o2
v80
v84
o2
v90
v94
C7
o54
10
o2
v1
v4
o2
v11
v14
o2
v21
v24
o2
v31
v34
o2
v41
v44
o2
v51
v54
o2
v61
v64
o2
v71
v74
o2
v81
v84
o2
v91
v94
C8
o54
10
o2
v2
v4
o2
v12
v14
o2
v22
v24
o2
v32
v34
o2
v42
v44
o2
v52
v54
o2
v62
v64
o2
v72
v74
o2
v82
v84
o2
v92
v94
C9
o54
10
o2
v3
v4
o2
v13
v14
o2
v23
v24
o2
v33
v34
o2
v43
v44
o2
v53
v54
o2
v63
v64
o2
v73
v74
o2
v83
v84
o2
v93
v94
C10
o54
10
o2
v0
v5
o2
v10
v15
o2
v20
v25
o2
v30
v35
o2
v40
v45
o2
v50
v55
o2
v60
v65
o2
v70
v75
o2
v80
v85
o2
v90
v95
C11
o54
10
o2
v1
v5
o2
v11
v15
o2
v21
v25
o2
v31
v35
o2
v41
v45
o2
v51
v55
o2
v61
v65
o2
v71
v75
o2
v81
v85
o2
v91
v95
C12
o54
10
o2
v2
v5
o2
v12
v15
o2
v22
v25
o2
v32
v35
o2
v42
v45
o2
v52
v55
o2
v62
v65
o2
v72
v75
o2
v82
v85
o2
v92
v95
C13
o54
10
o2
v3
v5
o2
v13
v15
o2
v23
v25
o2
v33
v35
o2
v43
v45
o2
v53
v55
o2
v63
v65
o2
v73
v75
o2
v83
v85
o2
v93
v95
C14
o54
10
o2
v4
v5
o2
v14
v15
o2
v24
v25
o2
v34
v35
o2
v44
v45
o2
v54
v55
o2
v64
v65
o2
v74
v75
o2
v84
v85
o2
v94
v95
C15
o54
10
o2
v0
v6
o2
v10
v16
o2
v20
v26
o2
v30
v36
o2
v40
v46
o2
v50
v56
o2
v60
v66
o2
v70
v76
o2
v80
v86
o2
v90
v96
C16
o54
10
o2
v1
v6
o2
v11
v16
o2
v21
v26
o2
v31
v36
o2
v41
v46
o2
v51
v56
o2
v61
v66
o2
v71
v76
o2
v81
v86
o2
v91
v96
C17
o54
10
o2
v2
v6
o2
v12
v16
o2
v22
v26
o2
v32
v36
o2
v42
v46
o2
v52
v56
o2
v62
v66
o2
v72
v76
o2
v82
v86
o2
v92
v96
C18
o54
10
o2
v3
v6
o2
v13
v16
o2
v23
v26
o2
v33
v36
o2
v43
v46
o2
v53
v56
o2
v63
v66
o2
v73
v76
o2
v83
v86
o2
v93
v96
C19
o54
10
o2
v4
v6
o2
v14
v16
o2
v24
v26
o2
v34
v36
o2
v44
v46
o2
v54
v56
o2
v64
v66
o2
v74
v76
o2
v84
v86
o2
v94
v96
C20
o54
10
o2
v5
v6
o2
v15
v16
o2
v25
v26
o2
v35
v36
o2
v45
v46
o2
v55
v56
o2
v65
v66
o2
v75
v76
o2
v85
v86
o2
v95
v96
C21
o54
10
o2
v0
v7
o2
v10
v17
o2
v20
v27
o2
v30
v37
o2
v40
v47
o2
v50
v57
o2
v60
v67
o2
v70
v77
o2
v80
v87
o2
v90
v97
C22
o54
10
o2
v1
v7
o2
v11
v17
o2
v21
v27
o2
v31
v37
o2
v41
v47
o2
v51
v57
o2
v61
v67
o2
v71
v77
o2
v81
v87
o2
v91
v97
C23
o54
10
o2
v2
v7
o2
v12
v17
o2
v22
v27
o2
v32
v37
o2
v42
v47
o2
v52
v57
o2
v62
v67
o2
v72
v77
o2
v82
v87
o2
v92
v97
C24
o54
10
o2
v3
v7
o2
v13
v17
o2
v23
v27
o2
v33
v37
o2
v43
v47
o2
v53
v57
o2
v63
v67
o2
v73
v77
o2
v83
v87
o2
v93
v97
C25
o54
10
o2
v4
v7
o2
v14
v17
o2
v24
v27
o2
v34
v37
o2
v44
v47
o2
v54
v57
o2
v64
v67
o2
v74
v77
o2
v84
v87
o2
v94
v97
C26
o54
10
o2
v5
v7
o2
v15
v17
o2
v25
v27
o2
v35
v37
o2
v45
v47
o2
v55
v57
o2
v65
v67
o2
v75
v77
o2
v85
v87
o2
v95
v97
C27
o54
10
o2
v6
v7
o2
v16
v17
o2
v26
v27
o2
v36
v37
o2
v46
v47
o2
v56
v57
o2
v66
v67
o2
v76
v77
o2
v86
v87
o2
v96
v97
C28
o54
10
o2
v0
v8
o2
v10
v18
o2
v20
v28
o2
v30
v38
o2
v40
v48
o2
v50
v58
o2
v60
v68
o2
v70
v78
o2
v80
v88
o2
v90
v98
C29
o54
10
o2
v1
v8
o2
v11
v18
o2
v21
v28
o2
v31
v38
o2
v41
v48
o2
v51
v58
o2
v61
v68
o2
v71
v78
o2
v81
v88
o2
v91
v98
C30
o54
10
o2
v2
v8
o2
v12
v18
o2
v22
v28
o2
v32
v38
o2
v42
v48
o2
v52
v58
o2
v62
v68
o2
v72
v78
o2
v82
v88
o2
v92
v98
C31
o54
10
o2
v3
v8
o2
v13
v18
o2
v23
v28
o2
v33
v38
o2
v43
v48
o2
v53
v58
o2
v63
v68
o2
v73
v78
o2
v83
v88
o2
v93
v98
C32
o54
10
o2
v4
v8
o2
v14
v18
o2
v24
v28
o2
v34
v38
o2
v44
v48
o2
v54
v58
o2
v64
v68
o2
v74
v78
o2
v84
v88
o2
v94
v98
C33
o54
10
o2
v5
v8
o2
v15
v18
o2
v25
v28
o2
v35
v38
o2
v45
v48
o2
v55
v58
o2
v65
v68
o2
v75
v78
o2
v85
v88
o2
v95
v98
C34
o54
10
o2
v6
v8
o2
v16
v18
o2
v26
v28
o2
v36
v38
o2
v46
v48
o2
v56
v58
o2
v66
v68
o2
v76
v78
o2
v86
v88
o2
v96
v98
C35
o54
10
o2
v7
v8
o2
v17
v18
o2
v27
v28
o2
v37
v38
o2
v47
v48
o2
v57
v58
o2
v67
v68
o2
v77
v78
o2
v87
v88
o2
v97
v98
C36
o54
10
o2
v0
v9
o2
v10
v19
o2
v20
v29
o2
v30
v39
o2
v40
v49
o2
v50
v59
o2
v60
v69
o2
v70
v79
o2
v80
v89
o2
v90
v99
C37
o54
10
o2
v1
v9
o2
v11
v19
o2
v21
v29
o2
v31
v39
o2
v41
v49
o2
v51
v59
o2
v61
v69
o2
v71
v79
o2
v81
v89
o2
v91
v99
C38
o54
10
o2
v2
v9
o2
v12
v19
o2
v22
v29
o2
v32
v39
o2
v42
v49
o2
v52
v59
o2
v62
v69
o2
v72
v79
o2
v82
v89
o2
v92
v99
C39
o54
10
o2
v3
v9
o2
v13
v19
o2
v23
v29
o2
v33
v39
o2
v43
v49
o2
v53
v59
o2
v63
v69
o2
v73
v79
o2
v83
v89
o2
v93
v99
C40
o54
10
o2
v4
v9
o2
v14
v19
o2
v24
v29
o2
v34
v39
o2
v44
v49
o2
v54
v59
o2
v64
v69
o2
v74
v79
o2
v84
v89
o2
v94
v99
C41
o54
10
o2
v5
v9
o2
v15
v19
o2
v25
v29
o2
v35
v39
o2
v45
v49
o2
v55
v59
o2
v65
v69
o2
v75
v79
o2
v85
v89
o2
v95
v99
C42
o54
10
o2
v6
v9
o2
v16
v19
o2
v26
v29
o2
v36
v39
o2
v46
v49
o2
v56
v59
o2
v66
v69
o2
v76
v79
o2
v86
v89
o2
v96
v99
C43
o54
10
o2
v7
v9
o2
v17
v19
o2
v27
v29
o2
v37
v39
o2
v47
v49
o2
v57
v59
o2
v67
v69
o2
v77
v79
o2
v87
v89
o2
v97
v99
C44
o54
10
o2
v8
v9
o2
v18
v19
o2
v28
v29
o2
v38
v39
o2
v48
v49
o2
v58
v59
o2
v68
v69
o2
v78
v79
o2
v88
v89
o2
v98
v99
C45
o54
10
o2
v0
v0
o2
v10
v10
o2
v20
v20
o2
v30
v30
o2
v40
v40
o2
v50
v50
o2
v60
v60
o2
v70
v70
o2
v80
v80
o2
v90
v90
C46
o54
10
o2
v1
v1
o2
v11
v11
o2
v21
v21
o2
v31
v31
o2
v41
v41
o2
v51
v51
o2
v61
v61
o2
v71
v71
o2
v81
v81
o2
v91
v91
C47
o54
10
o2
v2
v2
o2
v12
v12
o2
v22
v22
o2
v32
v32
o2
v42
v42
o2
v52
v52
o2
v62
v62
o2
v72
v72
o2
v82
v82
o2
v92
v92
C48
o54
10
o2
v3
v3
o2
v13
v13
o2
v23
v23
o2
v33
v33
o2
v43
v43
o2
v53
v53
o2
v63
v63
o2
v73
v73
o2
v83
v83
o2
v93
v93
C49
o54
10
o2
v4
v4
o2
v14
v14
o2
v24
v24
o2
v34
v34
o2
v44
v44
o2
v54
v54
o2
v64
v64
o2
v74
v74
o2
v84
v84
o2
v94
v94
C50
o54
10
o2
v5
v5
o2
v15
v15
o2
v25
v25
o2
v35
v35
o2
v45
v45
o2
v55
v55
o2
v65
v65
o2
v75
v75
o2
v85
v85
o2
v95
v95
C51
o54
10
o2
v6
v6
o2
v16
v16
o2
v26
v26
o2
v36
v36
o2
v46
v46
o2
v56
v56
o2
v66
v66
o2
v76
v76
o2
v86
v86
o2
v96
v96
C52
o54
10
o2
v7
v7
o2
v17
v17
o2
v27
v27
o2
v37
v37
o2
v47
v47
o2
v57
v57
o2
v67
v67
o2
v77
v77
o2
v87
v87
o2
v97
v97
C53
o54
10
o2
v8
v8
o2
v18
v18
o2
v28
v28
o2
v38
v38
o2
v48
v48
o2
v58
v58
o2
v68
v68
o2
v78
v78
o2
v88
v88
o2
v98
v98
C54
o54
10
o2
v9
v9
o2
v19
v19
o2
v29
v29
o2
v39
v39
o2
v49
v49
o2
v59
v59
o2
v69
v69
o2
v79
v79
o2
v89
v89
o2
v99
v99
O0 0
o54
55
o5
o0
n-2
o54
10
o2
o2
v0
v0
v100
o2
o2
v10
v10
v101
o2
o2
v20
v20
v102
o2
o2
v30
v30
v103
o2
o2
v40
v40
v104
o2
o2
v50
v50
v105
o2
o2
v60
v60
v106
o2
o2
v70
v70
v107
o2
o2
v80
v80
v108
o2
o2
v90
v90
v109
n2
o5
o0
n1
o54
10
o2
o2
v0
v1
v100
o2
o2
v10
v11
v101
o2
o2
v20
v21
v102
o2
o2
v30
v31
v103
o2
o2
v40
v41
v104
o2
o2
v50
v51
v105
o2
o2
v60
v61
v106
o2
o2
v70
v71
v107
o2
o2
v80
v81
v108
o2
o2
v90
v91
v109
n2
o5
o0
n-2
o54
10
o2
o2
v1
v1
v100
o2
o2
v11
v11
v101
o2
o2
v21
v21
v102
o2
o2
v31
v31
v103
o2
o2
v41
v41
v104
o2
o2
v51
v51
v105
o2
o2
v61
v61
v106
o2
o2
v71
v71
v107
o2
o2
v81
v81
v108
o2
o2
v91
v91
v109
n2
o5
o54
10
o2
o2
v0
v2
v100
o2
o2
v10
v12
v101
o2
o2
v20
v22
v102
o2
o2
v30
v32
v103
o2
o2
v40
v42
v104
o2
o2
v50
v52
v105
o2
o2
v60
v62
v106
o2
o2
v70
v72
v107
o2
o2
v80
v82
v108
o2
o2
v90
v92
v109
n2
o5
o0
n1
o54
10
o2
o2
v1
v2
v100
o2
o2
v11
v12
v101
o2
o2
v21
v22
v102
o2
o2
v31
v32
v103
o2
o2
v41
v42
v104
o2
o2
v51
v52
v105
o2
o2
v61
v62
v106
o2
o2
v71
v72
v107
o2
o2
v81
v82
v108
o2
o2
v91
v92
v109
n2
o5
o0
n-2
o54
10
o2
o2
v2
v2
v100
o2
o2
v12
v12
v101
o2
o2
v22
v22
v102
o2
o2
v32
v32
v103
o2
o2
v42
v42
v104
o2
o2
v52
v52
v105
o2
o2
v62
v62
v106
o2
o2
v72
v72
v107
o2
o2
v82
v82
v108
o2
o2
v92
v92
v109
n2
o5
o54
10
o2
o2
v0
v3
v100
o2
o2
v10
v13
v101
o2
o2
v20
v23
v102
o2
o2
v30
v33
v103
o2
o2
v40
v43
v104
o2
o2
v50
v53
v105
o2
o2
v60
v63
v106
o2
o2
v70
v73
v107
o2
o2
v80
v83
v108
o2
o2
v90
v93
v109
n2
o5
o54
10
o2
o2
v1
v3
v100
o2
o2
v11
v13
v101
o2
o2
v21
v23
v102
o2
o2
v31
v33
v103
o2
o2
v41
v43
v104
o2
o2
v51
v53
v105
o2
o2
v61
v63
v106
o2
o2
v71
v73
v107
o2
o2
v81
v83
v108
o2
o2
v91
v93
v109
n2
o5
o0
n1
o54
10
o2
o2
v2
v3
v100
o2
o2
v12
v13
v101
o2
o2
v22
v23
v102
o2
o2
v32
v33
v103
o2
o2
v42
v43
v104
o2
o2
v52
v53
v105
o2
o2
v62
v63
v106
o2
o2
v72
v73
v107
o2
o2
v82
v83
v108
o2
o2
v92
v93
v109
n2
o5
o0
n-2
o54
10
o2
o2
v3
v3
v100
o2
o2
v13
v13
v101
o2
o2
v23
v23
v102
o2
o2
v33
v33
v103
o2
o2
v43
v43
v104
o2
o2
v53
v53
v105
o2
o2
v63
v63
v106
o2
o2
v73
v73
v107
o2
o2
v83
v83
v108
o2
o2
v93
v93
v109
n2
o5
o54
10
o2
o2
v0
v4
v100
o2
o2
v10
v14
v101
o2
o2
v20
v24
v102
o2
o2
v30
v34
v103
o2
o2
v40
v44
v104
o2
o2
v50
v54
v105
o2
o2
v60
v64
v106
o2
o2
v70
v74
v107
o2
o2
v80
v84
v108
o2
o2
v90
v94
v109
n2
o5
o54
10
o2
o2
v1
v4
v100
o2
o2
v11
v14
v101
o2
o2
v21
v24
v102
o2
o2
v31
v34
v103
o2
o2
v41
v44
v104
o2
o2
v51
v54
v105
o2
o2
v61
v64
v106
o2
o2
v71
v74
v107
o2
o2
v81
v84
v108
o2
o2
v91
v94
v109
n2
o5
o54
10
o2
o2
v2
v4
v100
o2
o2
v12
v14
v101
o2
o2
v22
v24
v102
o2
o2
v32
v34
v103
o2
o2
v42
v44
v104
o2
o2
v52
v54
v105
o2
o2
v62
v64
v106
o2
o2
v72
v74
v107
o2
o2
v82
v84
v108
o2
o2
v92
v94
v109
n2
o5
o0
n1
o54
10
o2
o2
v3
v4
v100
o2
o2
v13
v14
v101
o2
o2
v23
v24
v102
o2
o2
v33
v34
v103
o2
o2
v43
v44
v104
o2
o2
v53
v54
v105
o2
o2
v63
v64
v106
o2
o2
v73
v74
v107
o2
o2
v83
v84
v108
o2
o2
v93
v94
v109
n2
o5
o0
n-2
o54
10
o2
o2
v4
v4
v100
o2
o2
v14
v14
v101
o2
o2
v24
v24
v102
o2
o2
v34
v34
v103
o2
o2
v44
v44
v104
o2
o2
v54
v54
v105
o2
o2
v64
v64
v106
o2
o2
v74
v74
v107
o2
o2
v84
v84
v108
o2
o2
v94
v94
v109
n2
o5
o54
10
o2
o2
v0
v5
v100
o2
o2
v10
v15
v101
o2
o2
v20
v25
v102
o2
o2
v30
v35
v103
o2
o2
v40
v45
v104
o2
o2
v50
v55
v105
o2
o2
v60
v65
v106
o2
o2
v70
v75
v107
o2
o2
v80
v85
v108
o2
o2
v90
v95
v109
n2
o5
o54
10
o2
o2
v1
v5
v100
o2
o2
v11
v15
v101
o2
o2
v21
v25
v102
o2
o2
v31
v35
v103
o2
o2
v41
v45
v104
o2
o2
v51
v55
v105
o2
o2
v61
v65
v106
o2
o2
v71
v75
v107
o2
o2
v81
v85
v108
o2
o2
v91
v95
v109
n2
o5
o54
10
o2
o2
v2
v5
v100
o2
o2
v12
v15
v101
o2
o2
v22
v25
v102
o2
o2
v32
v35
v103
o2
o2
v42
v45
v104
o2
o2
v52
v55
v105
o2
o2
v62
v65
v106
o2
o2
v72
v75
v107
o2
o2
v82
v85
v108
o2
o2
v92
v95
v109
n2
o5
o54
10
o2
o2
v3
v5
v100
o2
o2
v13
v15
v101
o2
o2
v23
v25
v102
o2
o2
v33
v35
v103
o2
o2
v43
v45
v104
o2
o2
v53
v55
v105
o2
o2
v63
v65
v106
o2
o2
v73
v75
v107
o2
o2
v83
v85
v108
o2
o2
v93
v95
v109
n2
o5
o0
n1
o54
10
o2
o2
v4
v5
v100
o2
o2
v14
v15
v101
o2
o2
v24
v25
v102
o2
o2
v34
v35
v103
o2
o2
v44
v45
v104
o2
o2
v54
v55
v105
o2
o2
v64
v65
v106
o2
o2
v74
v75
v107
o2
o2
v84
v85
v108
o2
o2
v94
v95
v109
n2
o5
o0
n-2
o54
10
o2
o2
v5
v5
v100
o2
o2
v15
v15
v101
o2
o2
v25
v25
v102
o2
o2
v35
v35
v103
o2
o2
v45
v45
v104
o2
o2
v55
v55
v105
o2
o2
v65
v65
v106
o2
o2
v75
v75
v107
o2
o2
v85
v85
v108
o2
o2
v95
v95
v109
n2
o5
o54
10
o2
o2
v0
v6
v100
o2
o2
v10
v16
v101
o2
o2
v20
v26
v102
o2
o2
v30
v36
v103
o2
o2
v40
v46
v104
o2
o2
v50
v56
v105
o2
o2
v60
v66
v106
o2
o2
v70
v76
v107
o2
o2
v80
v86
v108
o2
o2
v90
v96
v109
n2
o5
o54
10
o2
o2
v1
v6
v100
o2
o2
v11
v16
v101
o2
o2
v21
v26
v102
o2
o2
v31
v36
v103
o2
o2
v41
v46
v104
o2
o2
v51
v56
v105
o2
o2
v61
v66
v106
o2
o2
v71
v76
v107
o2
o2
v81
v86
v108
o2
o2
v91
v96
v109
n2
o5
o54
10
o2
o2
v2
v6
v100
o2
o2
v12
v16
v101
o2
o2
v22
v26
v102
o2
o2
v32
v36
v103
o2
o2
v42
v46
v104
o2
o2
v52
v56
v105
o2
o2
v62
v66
v106
o2
o2
v72
v76
v107
o2
o2
v82
v86
v108
o2
o2
v92
v96
v109
n2
o5
o54
10
o2
o2
v3
v6
v100
o2
o2
v13
v16
v101
o2
o2
v23
v26
v102
o2
o2
v33
v36
v103
o2
o2
v43
v46
v104
o2
o2
v53
v56
v105
o2
o2
v63
v66
v106
o2
o2
v73
v76
v107
o2
o2
v83
v86
v108
o2
o2
v93
v96
v109
n2
o5
o54
10
o2
o2
v4
v6
v100
o2
o2
v14
v16
v101
o2
o2
v24
v26
v102
o2
o2
v34
v36
v103
o2
o2
v44
v46
v104
o2
o2
v54
v56
v105
o2
o2
v64
v66
v106
o2
o2
v74
v76
v107
o2
o2
v84
v86
v108
o2
o2
v94
v96
v109
n2
o5
o0
n1
o54
10
o2
o2
v5
v6
v100
o2
o2
v15
v16
v101
o2
o2
v25
v26
v102
o2
o2
v35
v36
v103
o2
o2
v45
v46
v104
o2
o2
v55
v56
v105
o2
o2
v65
v66
v106
o2
o2
v75
v76
v107
o2
o2
v85
v86
v108
o2
o2
v95
v96
v109
n2
o5
o0
n-2
o54
10
o2
o2
v6
v6
v100
o2
o2
v16
v16
v101
o2
o2
v26
v26
v102
o2
o2
v36
v36
v103
o2
o2
v46
v46
v104
o2
o2
v56
v56
v105
o2
o2
v66
v66
v106
o2
o2
v76
v76
v107
o2
o2
v86
v86
v108
o2
o2
v96
v96
v109
n2
o5
o54
10
o2
o2
v0
v7
v100
o2
o2
v10
v17
v101
o2
o2
v20
v27
v102
o2
o2
v30
v37
v103
o2
o2
v40
v47
v104
o2
o2
v50
v57
v105
o2
o2
v60
v67
v106
o2
o2
v70
v77
v107
o2
o2
v80
v87
v108
o2
o2
v90
v97
v109
n2
o5
o54
10
o2
o2
v1
v7
v100
o2
o2
v11
v17
v101
o2
o2
v21
v27
v102
o2
o2
v31
v37
v103
o2
o2
v41
v47
v104
o2
o2
v51
v57
v105
o2
o2
v61
v67
v106
o2
o2
v71
v77
v107
o2
o2
v81
v87
v108
o2
o2
v91
v97
v109
n2
o5
o54
10
o2
o2
v2
v7
v100
o2
o2
v12
v17
v101
o2
o2
v22
v27
v102
o2
o2
v32
v37
v103
o2
o2
v42
v47
v104
o2
o2
v52
v57
v105
o2
o2
v62
v67
v106
o2
o2
v72
v77
v107
o2
o2
v82
v87
v108
o2
o2
v92
v97
v109
n2
o5
o54
10
o2
o2
v3
v7
v100
o2
o2
v13
v17
v101
o2
o2
v23
v27
v102
o2
o2
v33
v37
v103
o2
o2
v43
v47
v104
o2
o2
v53
v57
v105
o2
o2
v63
v67
v106
o2
o2
v73
v77
v107
o2
o2
v83
v87
v108
o2
o2
v93
v97
v109
n2
o5
o54
10
o2
o2
v4
v7
v100
o2
o2
v14
v17
v101
o2
o2
v24
v27
v102
o2
o2
v34
v37
v103
o2
o2
v44
v47
v104
o2
o2
v54
v57
v105
o2
o2
v64
v67
v106
o2
o2
v74
v77
v107
o2
o2
v84
v87
v108
o2
o2
v94
v97
v109
n2
o5
o54
10
o2
o2
v5
v7
v100
o2
o2
v15
v17
v101
o2
o2
v25
v27
v102
o2
o2
v35
v37
v103
o2
o2
v45
v47
v104
o2
o2
v55
v57
v105
o2
o2
v65
v67
v106
o2
o2
v75
v77
v107
o2
o2
v85
v87
v108
o2
o2
v95
v97
v109
n2
o5
o0
n1
o54
10
o2
o2
v6
v7
v100
o2
o2
v16
v17
v101
o2
o2
v26
v27
v102
o2
o2
v36
v37
v103
o2
o2
v46
v47
v104
o2
o2
v56
v57
v105
o2
o2
v66
v67
v106
o2
o2
v76
v77
v107
o2
o2
v86
v87
v108
o2
o2
v96
v97
v109
n2
o5
o0
n-2
o54
10
o2
o2
v7
v7
v100
o2
o2
v17
v17
v101
o2
o2
v27
v27
v102
o2
o2
v37
v37
v103
o2
o2
v47
v47
v104
o2
o2
v57
v57
v105
o2
o2
v67
v67
v106
o2
o2
v77
v77
v107
o2
o2
v87
v87
v108
o2
o2
v97
v97
v109
n2
o5
o54
10
o2
o2
v0
v8
v100
o2
o2
v10
v18
v101
o2
o2
v20
v28
v102
o2
o2
v30
v38
v103
o2
o2
v40
v48
v104
o2
o2
v50
v58
v105
o2
o2
v60
v68
v106
o2
o2
v70
v78
v107
o2
o2
v80
v88
v108
o2
o2
v90
v98
v109
n2
o5
o54
10
o2
o2
v1
v8
v100
o2
o2
v11
v18
v101
o2
o2
v21
v28
v102
o2
o2
v31
v38
v103
o2
o2
v41
v48
v104
o2
o2
v51
v58
v105
o2
o2
v61
v68
v106
o2
o2
v71
v78
v107
o2
o2
v81
v88
v108
o2
o2
v91
v98
v109
n2
o5
o54
10
o2
o2
v2
v8
v100
o2
o2
v12
v18
v101
o2
o2
v22
v28
v102
o2
o2
v32
v38
v103
o2
o2
v42
v48
v104
o2
o2
v52
v58
v105
o2
o2
v62
v68
v106
o2
o2
v72
v78
v107
o2
o2
v82
v88
v108
o2
o2
v92
v98
v109
n2
o5
o54
10
o2
o2
v3
v8
v100
o2
o2
v13
v18
v101
o2
o2
v23
v28
v102
o2
o2
v33
v38
v103
o2
o2
v43
v48
v104
o2
o2
v53
v58
v105
o2
o2
v63
v68
v106
o2
o2
v73
v78
v107
o2
o2
v83
v88
v108
o2
o2
v93
v98
v109
n2
o5
o54
10
o2
o2
v4
v8
v100
o2
o2
v14
v18
v101
o2
o2
v24
v28
v102
o2
o2
v34
v38
v103
o2
o2
v44
v48
v104
o2
o2
v54
v58
v105
o2
o2
v64
v68
v106
o2
o2
v74
v78
v107
o2
o2
v84
v88
v108
o2
o2
v94
v98
v109
n2
o5
o54
10
o2
o2
v5
v8
v100
o2
o2
v15
v18
v101
o2
o2
v25
v28
v102
o2
o2
v35
v38
v103
o2
o2
v45
v48
v104
o2
o2
v55
v58
v105
o2
o2
v65
v68
v106
o2
o2
v75
v78
v107
o2
o2
v85
v88
v108
o2
o2
v95
v98
v109
n2
o5
o54
10
o2
o2
v6
v8
v100
o2
o2
v16
v18
v101
o2
o2
v26
v28
v102
o2
o2
v36
v38
v103
o2
o2
v46
v48
v104
o2
o2
v56
v58
v105
o2
o2
v66
v68
v106
o2
o2
v76
v78
v107
o2
o2
v86
v88
v108
o2
o2
v96
v98
v109
n2
o5
o0
n1
o54
10
o2
o2
v7
v8
v100
o2
o2
v17
v18
v101
o2
o2
v27
v28
v102
o2
o2
v37
v38
v103
o2
o2
v47
v48
v104
o2
o2
v57
v58
v105
o2
o2
v67
v68
v106
o2
o2
v77
v78
v107
o2
o2
v87
v88
v108
o2
o2
v97
v98
v109
n2
o5
o0
n-2
o54
10
o2
o2
v8
v8
v100
o2
o2
v18
v18
v101
o2
o2
v28
v28
v102
o2
o2
v38
v38
v103
o2
o2
v48
v48
v104
o2
o2
v58
v58
v105
o2
o2
v68
v68
v106
o2
o2
v78
v78
v107
o2
o2
v88
v88
v108
o2
o2
v98
v98
v109
n2
o5
o54
10
o2
o2
v0
v9
v100
o2
o2
v10
v19
v101
o2
o2
v20
v29
v102
o2
o2
v30
v39
v103
o2
o2
v40
v49
v104
o2
o2
v50
v59
v105
o2
o2
v60
v69
v106
o2
o2
v70
v79
v107
o2
o2
v80
v89
v108
o2
o2
v90
v99
v109
n2
o5
o54
10
o2
o2
v1
v9
v100
o2
o2
v11
v19
v101
o2
o2
v21
v29
v102
o2
o2
v31
v39
v103
o2
o2
v41
v49
v104
o2
o2
v51
v59
v105
o2
o2
v61
v69
v106
o2
o2
v71
v79
v107
o2
o2
v81
v89
v108
o2
o2
v91
v99
v109
n2
o5
o54
10
o2
o2
v2
v9
v100
o2
o2
v12
v19
v101
o2
o2
v22
v29
v102
o2
o2
v32
v39
v103
o2
o2
v42
v49
v104
o2
o2
v52
v59
v105
o2
o2
v62
v69
v106
o2
o2
v72
v79
v107
o2
o2
v82
v89
v108
o2
o2
v92
v99
v109
n2
o5
o54
10
o2
o2
v3
v9
v100
o2
o2
v13
v19
v101
o2
o2
v23
v29
v102
o2
o2
v33
v39
v103
o2
o2
v43
v49
v104
o2
o2
v53
v59
v105
o2
o2
v63
v69
v106
o2
o2
v73
v79
v107
o2
o2
v83
v89
v108
o2
o2
v93
v99
v109
n2
o5
o54
10
o2
o2
v4
v9
v100
o2
o2
v14
v19
v101
o2
o2
v24
v29
v102
o2
o2
v34
v39
v103
o2
o2
v44
v49
v104
o2
o2
v54
v59
v105
o2
o2
v64
v69
v106
o2
o2
v74
v79
v107
o2
o2
v84
v89
v108
o2
o2
v94
v99
v109
n2
o5
o54
10
o2
o2
v5
v9
v100
o2
o2
v15
v19
v101
o2
o2
v25
v29
v102
o2
o2
v35
v39
v103
o2
o2
v45
v49
v104
o2
o2
v55
v59
v105
o2
o2
v65
v69
v106
o2
o2
v75
v79
v107
o2
o2
v85
v89
v108
o2
o2
v95
v99
v109
n2
o5
o54
10
o2
o2
v6
v9
v100
o2
o2
v16
v19
v101
o2
o2
v26
v29
v102
o2
o2
v36
v39
v103
o2
o2
v46
v49
v104
o2
o2
v56
v59
v105
o2
o2
v66
v69
v106
o2
o2
v76
v79
v107
o2
o2
v86
v89
v108
o2
o2
v96
v99
v109
n2
o5
o54
10
o2
o2
v7
v9
v100
o2
o2
v17
v19
v101
o2
o2
v27
v29
v102
o2
o2
v37
v39
v103
o2
o2
v47
v49
v104
o2
o2
v57
v59
v105
o2
o2
v67
v69
v106
o2
o2
v77
v79
v107
o2
o2
v87
v89
v108
o2
o2
v97
v99
v109
n2
o5
o0
n1
o54
10
o2
o2
v8
v9
v100
o2
o2
v18
v19
v101
o2
o2
v28
v29
v102
o2
o2
v38
v39
v103
o2
o2
v48
v49
v104
o2
o2
v58
v59
v105
o2
o2
v68
v69
v106
o2
o2
v78
v79
v107
o2
o2
v88
v89
v108
o2
o2
v98
v99
v109
n2
o5
o0
n-2
o54
10
o2
o2
v9
v9
v100
o2
o2
v19
v19
v101
o2
o2
v29
v29
v102
o2
o2
v39
v39
v103
o2
o2
v49
v49
v104
o2
o2
v59
v59
v105
o2
o2
v69
v69
v106
o2
o2
v79
v79
v107
o2
o2
v89
v89
v108
o2
o2
v99
v99
v109
n2
k109
10
20
30
40
50
60
70
80
90
100
110
120
130
140
150
160
170
180
190
200
210
220
230
240
250
260
270
280
290
300
310
320
330
340
350
360
370
380
390
400
410
420
430
440
450
460
470
480
490
500
510
520
530
540
550
560
570
580
590
600
610
620
630
640
650
660
670
680
690
700
710
720
730
740
750
760
770
780
790
800
810
820
830
840
850
860
870
880
890
900
910
920
930
940
950
960
970
980
990
1000
1000
1000
1000
1000
1000
1000
1000
1000
1000
J0 20
0 0
1 0
10 0
11 0
20 0
21 0
30 0
31 0
40 0
41 0
50 0
51 0
60 0
61 0
70 0
71 0
80 0
81 0
90 0
91 0
J1 20
0 0
2 0
10 0
12 0
20 0
22 0
30 0
32 0
40 0
42 0
50 0
52 0
60 0
62 0
70 0
72 0
80 0
82 0
90 0
92 0
J2 20
1 0
2 0
11 0
12 0
21 0
22 0
31 0
32 0
41 0
42 0
51 0
52 0
61 0
62 0
71 0
72 0
81 0
82 0
91 0
92 0
J3 20
0 0
3 0
10 0
13 0
20 0
23 0
30 0
33 0
40 0
43 0
50 0
53 0
60 0
63 0
70 0
73 0
80 0
83 0
90 0
93 0
J4 20
1 0
3 0
11 0
13 0
21 0
23 0
31 0
33 0
41 0
43 0
51 0
53 0
61 0
63 0
71 0
73 0
81 0
83 0
91 0
93 0
J5 20
2 0
3 0
12 0
13 0
22 0
23 0
32 0
33 0
42 0
43 0
52 0
53 0
62 0
63 0
72 0
73 0
82 0
83 0
92 0
93 0
J6 20
0 0
4 0
10 0
14 0
20 0
24 0
30 0
34 0
40 0
44 0
50 0
54 0
60 0
64 0
70 0
74 0
80 0
84 0
90 0
94 0
J7 20
1 0
4 0
11 0
14 0
21 0
24 0
31 0
34 0
41 0
44 0
51 0
54 0
61 0
64 0
71 0
74 0
81 0
84 0
91 0
94 0
J8 20
2 0
4 0
12 0
14 0
22 0
24 0
32 0
34 0
42 0
44 0
52 0
54 0
62 0
64 0
72 0
74 0
82 0
84 0
92 0
94 0
J9 20
3 0
4 0
13 0
14 0
23 0
24 0
33 0
34 0
43 0
44 0
53 0
54 0
63 0
64 0
73 0
74 0
83 0
84 0
93 0
94 0
J10 20
0 0
5 0
10 0
15 0
20 0
25 0
30 0
35 0
40 0
45 0
50 0
55 0
60 0
65 0
70 0
75 0
80 0
85 0
90 0
95 0
J11 20
1 0
5 0
11 0
15 0
21 0
25 0
31 0
35 0
41 0
45 0
51 0
55 0
61 0
65 0
71 0
75 0
81 0
85 0
91 0
95 0
J12 20
2 0
5 0
12 0
15 0
22 0
25 0
32 0
35 0
42 0
45 0
52 0
55 0
62 0
65 0
72 0
75 0
82 0
85 0
92 0
95 0
J13 20
3 0
5 0
13 0
15 0
23 0
25 0
33 0
35 0
43 0
45 0
53 0
55 0
63 0
65 0
73 0
75 0
83 0
85 0
93 0
95 0
J14 20
4 0
5 0
14 0
15 0
24 0
25 0
34 0
35 0
44 0
45 0
54 0
55 0
64 0
65 0
74 0
75 0
84 0
85 0
94 0
95 0
J15 20
0 0
6 0
10 0
16 0
20 0
26 0
30 0
36 0
40 0
46 0
50 0
56 0
60 0
66 0
70 0
76 0
80 0
86 0
90 0
96 0
J16 20
1 0
6 0
11 0
16 0
21 0
26 0
31 0
36 0
41 0
46 0
51 0
56 0
61 0
66 0
71 0
76 0
81 0
86 0
91 0
96 0
J17 20
2 0
6 0
12 0
16 0
22 0
26 0
32 0
36 0
42 0
46 0
52 0
56 0
62 0
66 0
72 0
76 0
82 0
86 0
92 0
96 0
J18 20
3 0
6 0
13 0
16 0
23 0
26 0
33 0
36 0
43 0
46 0
53 0
56 0
63 0
66 0
73 0
76 0
83 0
86 0
93 0
96 0
J19 20
4 0
6 0
14 0
16 0
24 0
26 0
34 0
36 0
44 0
46 0
54 0
56 0
64 0
66 0
74 0
76 0
84 0
86 0
94 0
96 0
J20 20
5 0
6 0
15 0
16 0
25 0
26 0
35 0
36 0
45 0
46 0
55 0
56 0
65 0
66 0
75 0
76 0
85 0
86 0
95 0
96 0
J21 20
0 0
7 0
10 0
17 0
20 0
27 0
30 0
37 0
40 0
47 0
50 0
57 0
60 0
67 0
70 0
77 0
80 0
87 0
90 0
97 0
J22 20
1 0
7 0
11 0
17 0
21 0
27 0
31 0
37 0
41 0
47 0
51 0
57 0
61 0
67 0
71 0
77 0
81 0
87 0
91 0
97 0
J23 20
2 0
7 0
12 0
17 0
22 0
27 0
32 0
37 0
42 0
47 0
52 0
57 0
62 0
67 0
72 0
77 0
82 0
87 0
92 0
97 0
J24 20
3 0
7 0
13 0
17 0
23 0
27 0
33 0
37 0
43 0
47 0
53 0
57 0
63 0
67 0
73 0
77 0
83 0
87 0
93 0
97 0
J25 20
4 0
7 0
14 0
17 0
24 0
27 0
34 0
37 0
44 0
47 0
54 0
57 0
64 0
67 0
74 0
77 0
84 0
87 0
94 0
97 0
J26 20
5 0
7 0
15 0
17 0
25 0
27 0
35 0
37 0
45 0
47 0
55 0
57 0
65 0
67 0
75 0
77 0
85 0
87 0
95 0
97 0
J27 20
6 0
7 0
16 0
17 0
26 0
27 0
36 0
37 0
46 0
47 0
56 0
57 0
66 0
67 0
76 0
77 0
86 0
87 0
96 0
97 0
J28 20
0 0
8 0
10 0
18 0
20 0
28 0
30 0
38 0
40 0
48 0
50 0
58 0
60 0
68 0
70 0
78 0
80 0
88 0
90 0
98 0
J29 20
1 0
8 0
11 0
18 0
21 0
28 0
31 0
38 0
41 0
48 0
51 0
58 0
61 0
68 0
71 0
78 0
81 0
88 0
91 0
98 0
J30 20
2 0
8 0
12 0
18 0
22 0
28 0
32 0
38 0
42 0
48 0
52 0
58 0
62 0
68 0
72 0
78 0
82 0
88 0
92 0
98 0
J31 20
3 0
8 0
13 0
18 0
23 0
28 0
33 0
38 0
43 0
48 0
53 0
58 0
63 0
68 0
73 0
78 0
83 0
88 0
93 0
98 0
J32 20
4 0
8 0
14 0
18 0
24 0
28 0
34 0
38 0
44 0
48 0
54 0
58 0
64 0
68 0
74 0
78 0
84 0
88 0
94 0
98 0
J33 20
5 0
8 0
15 0
18 0
25 0
28 0
35 0
38 0
45 0
48 0
55 0
58 0
65 0
68 0
75 0
78 0
85 0
88 0
95 0
98 0
J34 20
6 0
8 0
16 0
18 0
26 0
28 0
36 0
38 0
46 0
48 0
56 0
58 0
66 0
68 0
76 0
78 0
86 0
88 0
96 0
98 0
J35 20
7 0
8 0
17 0
18 0
27 0
28 0
37 0
38 0
47 0
48 0
57 0
58 0
67 0
68 0
77 0
78 0
87 0
88 0
97 0
98 0
J36 20
0 0
9 0
10 0
19 0
20 0
29 0
30 0
39 0
40 0
49 0
50 0
59 0
60 0
69 0
70 0
79 0
80 0
89 0
90 0
99 0
J37 20
1 0
9 0
11 0
19 0
21 0
29 0
31 0
39 0
41 0
49 0
51 0
59 0
61 0
69 0
71 0
79 0
81 0
89 0
91 0
99 0
J38 20
2 0
9 0
12 0
19 0
22 0
29 0
32 0
39 0
42 0
49 0
52 0
59 0
62 0
69 0
72 0
79 0
82 0
89 0
92 0
99 0
J39 20
3 0
9 0
13 0
19 0
23 0
29 0
33 0
39 0
43 0
49 0
53 0
59 0
63 0
69 0
73 0
79 0
83 0
89 0
93 0
99 0
J40 20
4 0
9 0
14 0
19 0
24 0
29 0
34 0
39 0
44 0
49 0
54 0
59 0
64 0
69 0
74 0
79 0
84 0
89 0
94 0
99 0
J41 20
5 0
9 0
15 0
19 0
25 0
29 0
35 0
39 0
45 0
49 0
55 0
59 0
65 0
69 0
75 0
79 0
85 0
89 0
95 0
99 0
J42 20
6 0
9 0
16 0
19 0
26 0
29 0
36 0
39 0
46 0
49 0
56 0
59 0
66 0
69 0
76 0
79 0
86 0
89 0
96 0
99 0
J43 20
7 0
9 0
17 0
19 0
27 0
29 0
37 0
39 0
47 0
49 0
57 0
59 0
67 0
69 0
77 0
79 0
87 0
89 0
97 0
99 0
J44 20
8 0
9 0
18 0
19 0
28 0
29 0
38 0
39 0
48 0
49 0
58 0
59 0
68 0
69 0
78 0
79 0
88 0
89 0
98 0
99 0
J45 10
0 0
10 0
20 0
30 0
40 0
50 0
60 0
70 0
80 0
90 0
J46 10
1 0
11 0
21 0
31 0
41 0
51 0
61 0
71 0
81 0
91 0
J47 10
2 0
12 0
22 0
32 0
42 0
52 0
62 0
72 0
82 0
92 0
J48 10
3 0
13 0
23 0
33 0
43 0
53 0
63 0
73 0
83 0
93 0
J49 10
4 0
14 0
24 0
34 0
44 0
54 0
64 0
74 0
84 0
94 0
J50 10
5 0
15 0
25 0
35 0
45 0
55 0
65 0
75 0
85 0
95 0
J51 10
6 0
16 0
26 0
36 0
46 0
56 0
66 0
76 0
86 0
96 0
J52 10
7 0
17 0
27 0
37 0
47 0
57 0
67 0
77 0
87 0
97 0
J53 10
8 0
18 0
28 0
38 0
48 0
58 0
68 0
78 0
88 0
98 0
J54 10
9 0
19 0
29 0
39 0
49 0
59 0
69 0
79 0
89 0
99 0
G0 110
0 0
1 0
2 0
3 0
4 0
5 0
6 0
7 0
8 0
9 0
10 0
11 0
12 0
13 0
14 0
15 0
16 0
17 0
18 0
19 0
20 0
21 0
22 0
23 0
24 0
25 0
26 0
27 0
28 0
29 0
30 0
31 0
32 0
33 0
34 0
35 0
36 0
37 0
38 0
39 0
40 0
41 0
42 0
43 0
44 0
45 0
46 0
47 0
48 0
49 0
50 0
51 0
52 0
53 0
54 0
55 0
56 0
57 0
58 0
59 0
60 0
61 0
62 0
63 0
64 0
65 0
66 0
67 0
68 0
69 0
70 0
71 0
72 0
73 0
74 0
75 0
76 0
77 0
78 0
79 0
80 0
81 0
82 0
83 0
84 0
85 0
86 0
87 0
88 0
89 0
90 0
91 0
92 0
93 0
94 0
95 0
96 0
97 0
98 0
99 0
100 0
101 0
102 0
103 0
104 0
105 0
106 0
107 0
108 0
109 0
